32645.18,40.01,44.06
28076.66,46.52,51.23
30447.24,42.9,47.24
32117.74,40.67,44.79
26229.47,49.8,54.84
30145.99,43.33,47.72
31070.38,42.04,46.3
27612.76,47.3,52.09
26696.76,48.93,53.88
28663.68,45.57,50.18
25954.5,50.33,55.42
26329.45,49.61,54.63
29597.45,44.13,48.6
31731.91,41.16,45.33
30580.43,42.71,47.04
29320.62,44.55,49.06
28366.63,46.05,50.71
29633.76,44.08,48.54
29102.58,44.88,49.43
24952.4,52.35,57.65
